nN = 5;
nR = 25;
nH = 1;

a = [[24, 21, 17, 22, 19, 18, 20, 21, 15, 21, 17, 25, 18, 18, 15, 20, 16, 19, 16, 24, 16, 22, 18, 17, 22], [20, 23, 23, 21, 24, 22, 21, 24, 15, 17, 22, 17, 20, 16, 24, 18, 19, 21, 22, 18, 23, 18, 23, 16, 24], [22, 18, 24, 22, 17, 17, 16, 15, 25, 23, 16, 16, 19, 21, 24, 20, 24, 15, 15, 23, 24, 19, 20, 23, 25], [22, 22, 19, 21, 16, 25, 16, 16, 16, 16, 17, 17, 18, 15, 22, 18, 15, 20, 15, 17, 25, 15, 19, 20, 20], [21, 21, 24, 25, 24, 19, 23, 17, 20, 24, 21, 16, 19, 15, 16, 15, 25, 25, 15, 15, 21, 16, 16, 19, 15]];
c = [[[0, 0, 0, 0, 0, 0, 0, 0, 0, 0, 0, 0, 0, 0, 0, 0, 0, 0, 0, 0, 0, 0, 0, 0, 0], [41, 31, 34, 37, 30, 48, 34, 30, 41, 44, 31, 35, 50, 32, 36, 47, 30, 30, 35, 37, 50, 33, 42, 43, 39], [38, 46, 44, 48, 39, 41, 38, 48, 32, 35, 46, 42, 43, 41, 50, 34, 35, 37, 45, 30, 36, 35, 32, 41, 39], [43, 47, 39, 31, 47, 37, 41, 47, 46, 32, 43, 36, 46, 39, 33, 43, 40, 45, 43, 30, 42, 42, 38, 34, 33], [36, 40, 32, 33, 40, 47, 40, 33, 48, 46, 35, 39, 43, 31, 48, 45, 47, 31, 48, 41, 34, 38, 31, 33, 38]], [[0, 0, 0, 0, 0, 0, 0, 0, 0, 0, 0, 0, 0, 0, 0, 0, 0, 0, 0, 0, 0, 0, 0, 0, 0], [0, 0, 0, 0, 0, 0, 0, 0, 0, 0, 0, 0, 0, 0, 0, 0, 0, 0, 0, 0, 0, 0, 0, 0, 0], [43, 38, 45, 43, 42, 42, 37, 33, 42, 32, 40, 41, 50, 33, 42, 50, 39, 39, 33, 43, 37, 44, 39, 38, 46], [41, 38, 33, 33, 41, 50, 42, 36, 44, 36, 40, 34, 47, 41, 37, 40, 36, 38, 43, 31, 37, 40, 50, 31, 38], [46, 40, 35, 44, 39, 31, 42, 36, 35, 49, 32, 42, 48, 30, 31, 50, 44, 34, 33, 39, 44, 50, 38, 44, 35]], [[0, 0, 0, 0, 0, 0, 0, 0, 0, 0, 0, 0, 0, 0, 0, 0, 0, 0, 0, 0, 0, 0, 0, 0, 0], [0, 0, 0, 0, 0, 0, 0, 0, 0, 0, 0, 0, 0, 0, 0, 0, 0, 0, 0, 0, 0, 0, 0, 0, 0], [0, 0, 0, 0, 0, 0, 0, 0, 0, 0, 0, 0, 0, 0, 0, 0, 0, 0, 0, 0, 0, 0, 0, 0, 0], [39, 40, 48, 38, 47, 42, 38, 48, 30, 38, 46, 40, 42, 36, 42, 36, 49, 45, 46, 48, 41, 47, 33, 35, 38], [36, 40, 49, 43, 48, 33, 47, 50, 43, 33, 37, 31, 36, 42, 39, 45, 49, 44, 42, 49, 49, 45, 50, 45, 38]], [[0, 0, 0, 0, 0, 0, 0, 0, 0, 0, 0, 0, 0, 0, 0, 0, 0, 0, 0, 0, 0, 0, 0, 0, 0], [0, 0, 0, 0, 0, 0, 0, 0, 0, 0, 0, 0, 0, 0, 0, 0, 0, 0, 0, 0, 0, 0, 0, 0, 0], [0, 0, 0, 0, 0, 0, 0, 0, 0, 0, 0, 0, 0, 0, 0, 0, 0, 0, 0, 0, 0, 0, 0, 0, 0], [0, 0, 0, 0, 0, 0, 0, 0, 0, 0, 0, 0, 0, 0, 0, 0, 0, 0, 0, 0, 0, 0, 0, 0, 0], [41, 36, 35, 36, 44, 41, 44, 43, 42, 34, 35, 42, 31, 38, 35, 48, 49, 35, 33, 42, 42, 38, 36, 41, 41]], [[0, 0, 0, 0, 0, 0, 0, 0, 0, 0, 0, 0, 0, 0, 0, 0, 0, 0, 0, 0, 0, 0, 0, 0, 0], [0, 0, 0, 0, 0, 0, 0, 0, 0, 0, 0, 0, 0, 0, 0, 0, 0, 0, 0, 0, 0, 0, 0, 0, 0], [0, 0, 0, 0, 0, 0, 0, 0, 0, 0, 0, 0, 0, 0, 0, 0, 0, 0, 0, 0, 0, 0, 0, 0, 0], [0, 0, 0, 0, 0, 0, 0, 0, 0, 0, 0, 0, 0, 0, 0, 0, 0, 0, 0, 0, 0, 0, 0, 0, 0], [0, 0, 0, 0, 0, 0, 0, 0, 0, 0, 0, 0, 0, 0, 0, 0, 0, 0, 0, 0, 0, 0, 0, 0, 0]]];

q = [[[11], [6], [5], [21], [12], [12], [6], [25], [11], [7], [11], [22], [18], [16], [12], [7], [7], [9], [9], [13], [15], [22], [23], [24], [11]], [[22], [25], [6], [21], [17], [18], [10], [18], [25], [16], [14], [5], [5], [8], [20], [6], [16], [12], [8], [8], [19], [5], [15], [12], [25]], [[8], [10], [11], [24], [8], [7], [14], [6], [25], [6], [13], [25], [11], [15], [9], [17], [6], [8], [25], [21], [17], [25], [19], [16], [10]], [[18], [13], [22], [7], [20], [8], [10], [17], [7], [12], [20], [17], [6], [15], [18], [23], [10], [10], [19], [25], [25], [13], [16], [20], [15]], [[23], [14], [16], [6], [22], [21], [9], [13], [8], [18], [11], [25], [9], [11], [19], [20], [17], [7], [10], [20], [7], [16], [20], [17], [10]]];
Q = [[53], [56], [56], [61], [59]];
